data_generator/6.atsp
NAME: 6
TYPE: ATSP
DIMENSION: 6
EDGE_WEIGHT_TYPE: EXPLICIT
EDGE_WEIGHT_FORMAT: FULL_MATRIX
EDGE_WEIGHT_SECTION
 999999 74 18 87 16 33
 44 999999 30 46 56 8
 8 16 999999 95 54 92
 81 88 30 999999 63 8
 20 27 47 64 999999 54
 52 27 70 42 13 999999
EOF
