data_generator/6.opt.tour
NAME : 6.opt.tour
TYPE : TOUR
DIMENSION : 6
COMMENT : OPTIMAL_COST = 121
TOUR_SECTION
1
3
2
4
6
5
-1
EOF
